SCIP Status        : solving was interrupted [time limit reached]
Total Time         :    3600.00
  solving          :    3600.00
  presolving       :       0.24 (included in solving)
  reading          :       0.00
  copying          :       0.92 (33 #copies) (minimal 0.00, maximal 0.07, average 0.03)
Original Problem   :
  Problem name     : bbbenchmark/pw05_100.2.cut
  Variables        : 101 (100 binary, 0 integer, 0 implicit integer, 1 continuous)
  Constraints      : 1 initial, 1 maximal
  Objective        : minimize, 1 non-zeros (abs.min = 1, abs.max = 1)
Presolved Problem  :
  Problem name     : t_bbbenchmark/pw05_100.2.cut
  Variables        : 1915 (100 binary, 0 integer, 1801 implicit integer, 14 continuous)
  Constraints      : 1841 initial, 7285 maximal
  Objective        : minimize, 1 non-zeros (abs.min = 1, abs.max = 1)
  Nonzeros         : 8731 constraint, 202 clique table
Presolvers         :   ExecTime  SetupTime  Calls  FixedVars   AggrVars   ChgTypes  ChgBounds   AddHoles    DelCons    AddCons   ChgSides   ChgCoefs
  boundshift       :       0.00       0.00      0          0          0          0          0          0          0          0          0          0
  convertinttobin  :       0.00       0.00      0          0          0          0          0          0          0          0          0          0
  domcol           :       0.00       0.00      1          0          0          0          0          0          0          0          0          0
  dualagg          :       0.00       0.00      0          0          0          0          0          0          0          0          0          0
  dualcomp         :       0.00       0.00      1          0          0          0          0          0          0          0          0          0
  dualinfer        :       0.00       0.00      0          0          0          0          0          0          0          0          0          0
  dualsparsify     :       0.00       0.00      1          0          0          0          0          0          0          0          0          0
  gateextraction   :       0.00       0.00      0          0          0          0          0          0          0          0          0          0
  implics          :       0.00       0.00      2          0          0          0          0          0          0          0          0          0
  inttobinary      :       0.00       0.00      0          0          0          0          0          0          0          0          0          0
  qpkktref         :       0.00       0.00      0          0          0          0          0          0          0          0          0          0
  redvub           :       0.00       0.00      0          0          0          0          0          0          0          0          0          0
  sparsify         :       0.00       0.00      1          0          0          0          0          0          0          0          0          0
  stuffing         :       0.00       0.00      0          0          0          0          0          0          0          0          0          0
  trivial          :       0.00       0.00      4          0          0          0          0          0          0          0          0          0
  tworowbnd        :       0.00       0.00      0          0          0          0          0          0          0          0          0          0
  dualfix          :       0.00       0.00      4          0          0          0          0          0          0          0          0          0
  genvbounds       :       0.00       0.00      0          0          0          0          0          0          0          0          0          0
  probing          :       0.15       0.00      1          0          0          0          0          0          0          0          0          0
  pseudoobj        :       0.00       0.00      1          0          0          0          1          0          0          0          0          0
  symmetry         :       0.00       0.00      0          0          0          0          0          0          0          0          0          0
  vbounds          :       0.00       0.00      1          0          0          0          0          0          0          0          0          0
  varbound         :       0.00       0.00      2          0          0          0          0          0          0          0          0          0
  and              :       0.00       0.00      2          0          0          0          0          0          0          0          0          0
  linear           :       0.00       0.00      2          0          0          0          0          0          0          0          0          0
  logicor          :       0.00       0.00      0          0          0          0          0          0          0          0          0          0
  bounddisjunction :       0.00       0.00      0          0          0          0          0          0          0          0          0          0
  nonlinear        :       0.09       0.01      5          0          0          0          1          0          0       1840          0          0
  benders          :       0.00       0.00      0          0          0          0          0          0          0          0          0          0
  components       :       0.00       0.00      1          0          0          0          0          0          0          0          0          0
  root node        :          -          -      -          0          -          -         16          -          -          -          -          -
Constraints        :     Number  MaxNumber  #Separate #Propagate    #EnfoLP    #EnfoRelax  #EnfoPS    #Check   #ResProp    Cutoffs    DomReds       Cuts    Applied      Conss   Children
  benderslp        :          0          0          0          0      27314          0          0       5222          0          0          0          0          0          0          0
  integral         :          0          0          0          0      27314          0          0       5222          0          0        624          0          0        529      54128
  varbound         :         13         13        227     313313          0          0          0         31          0          0      17891          0          0          0          0
  and              :       1801       1801      37926     336670          0          0          0         31     273275         13     238341       6317       5595          0          0
  linear           :         27+        31        227     336716          0          0          0         29        255          3      70337          0          0          0          0
  logicor          :          0+      5392          0      46531          0          0          0          0        342        208         23          0          0          0          0
  bounddisjunction :          0+       108          0      16935          0          0          0          0          3          9          3          0          0          0          0
  benders          :          0          0          0          0          0          0          0         26          0          0          0          0          0          0          0
  countsols        :          0          0          0          0          0          0          0         26          0          0          0          0          0          0          0
  components       :          0          0          0          0          0          0          0          0          0          0          0          0          0          0          0
Constraint Timings :  TotalTime  SetupTime   Separate  Propagate     EnfoLP     EnfoPS     EnfoRelax   Check    ResProp    SB-Prop
  benderslp        :       0.04       0.00       0.00       0.00       0.04       0.00       0.00       0.00       0.00       0.00
  integral         :      60.03       0.00       0.00       0.00      60.03       0.00       0.00       0.00       0.00       0.00
  varbound         :       0.32       0.00       0.00       0.32       0.00       0.00       0.00       0.00       0.00       0.00
  and              :      40.35       0.00      26.07      13.41       0.00       0.00       0.00       0.00       0.28       0.59
  linear           :       1.47       0.00       0.14       1.26       0.00       0.00       0.00       0.00       0.00       0.07
  logicor          :       3.83       0.00       0.00       3.81       0.00       0.00       0.00       0.00       0.01       0.01
  bounddisjunction :       0.07       0.00       0.00       0.07       0.00       0.00       0.00       0.00       0.00       0.00
  benders          :       0.00       0.00       0.00       0.00       0.00       0.00       0.00       0.00       0.00       0.00
  countsols        :       0.00       0.00       0.00       0.00       0.00       0.00       0.00       0.00       0.00       0.00
  components       :       0.09       0.00       0.00       0.09       0.00       0.00       0.00       0.00       0.00       0.00
Propagators        : #Propagate   #ResProp    Cutoffs    DomReds
  dualfix          :          4          0          0          0
  genvbounds       :          0          0          0          0
  nlobbt           :          0          0          0          0
  obbt             :          0          0          0          0
  probing          :          0          0          0          0
  pseudoobj        :     120122          0          0         31
  redcost          :      71135          0          0      15635
  rootredcost      :          8          0          0          0
  symmetry         :          0          0          0          0
  vbounds          :      39520          0          0          0
Propagator Timings :  TotalTime  SetupTime   Presolve  Propagate    ResProp    SB-Prop
  dualfix          :       0.00       0.00       0.00       0.00       0.00       0.00
  genvbounds       :       0.18       0.00       0.00       0.18       0.00       0.00
  nlobbt           :       0.00       0.00       0.00       0.00       0.00       0.00
  obbt             :       0.00       0.00       0.00       0.00       0.00       0.00
  probing          :       0.15       0.00       0.15       0.00       0.00       0.00
  pseudoobj        :       0.23       0.00       0.00       0.23       0.00       0.00
  redcost          :       5.34       0.00       0.00       5.33       0.00       0.01
  rootredcost      :       0.21       0.00       0.00       0.21       0.00       0.00
  symmetry         :       0.16       0.00       0.00       0.16       0.00       0.00
  vbounds          :       0.24       0.00       0.00       0.24       0.00       0.00
Conflict Analysis  :       Time      Calls    Success    DomReds  Conflicts   Literals    Reconvs ReconvLits   Dualrays   Nonzeros   LP Iters   (pool size: [10000,10000])
  propagation      :       0.00        230        159          -        190       55.0          0        0.0          -          -          -
  infeasible LP    :       0.00          7          7          -        316      152.4          0        0.0         15      179.3          0
  bound exceed. LP :      15.07       3097       2808          -      75699      106.0          1       46.0          0        0.0      33753
  strong branching :       0.00          0          0          -          0        0.0          0        0.0          -          -          0
  pseudo solution  :       0.00          0          0          -          0        0.0          0        0.0          -          -          -
  applied globally :       0.24          -          -          0      16239      123.4          -          -         15          -          -
  applied locally  :          -          -          -          0          0        0.0          -          -          0          -          -
Separators         :   ExecTime  SetupTime      Calls  RootCalls    Cutoffs    DomReds  FoundCuts ViaPoolAdd  DirectAdd    Applied ViaPoolApp  DirectApp      Conss
  cut pool         :       9.56          -      19966        261          -          -      44426    2521273          -          -          -          -          -    (maximal pool size:       4121)
  aggregation      :     864.98       0.00       8375        227          0          0        133         66          0         28         28          0          0
  > cmir           :          -          -          -          -          -          -          -         62          0         24         24          0          -
  > flowcover      :          -          -          -          -          -          -          -          4          0          4          4          0          -
  > knapsackcover  :          -          -          -          -          -          -          -          0          0          0          0          0          -
  cgmip            :       0.00       0.00          0          0          0          0          0          0          0          0          0          0          0
  clique           :       0.00       0.00        227        227          0          0          0          0          0          0          0          0          0
  closecuts        :       0.00       0.00          0          0          0          0          0          0          0          0          0          0          0
  convexproj       :       0.00       0.00          0          0          0          0          0          0          0          0          0          0          0
  disjunctive      :       0.00       0.00          0          0          0          0          0          0          0          0          0          0          0
  eccuts           :       0.00       0.00          0          0          0          0          0          0          0          0          0          0          0
  gauge            :       0.00       0.00          0          0          0          0          0          0          0          0          0          0          0
  gomory           :       0.00       0.00          0          0          0          0          0          0          0          0          0          0          0
  > gomorymi       :          -          -          -          -          -          -          -          0          0          0          0          0          -
  > strongcg       :          -          -          -          -          -          -          -          0          0          0          0          0          -
  impliedbounds    :       0.58       0.00       8375        227          0          0         38          5          0          4          4          0          0
  interlattice     :       1.18       0.00        160        160          0          0        160          0        160        148          0        148          0
  interminor       :       0.00       0.00          0          0          0          0          0          0          0          0          0          0          0
  intersub         :       1.96       0.00         40         40          0          0         40          0         40         40          0         40          0
  intobj           :       0.00       0.00          0          0          0          0          0          0          0          0          0          0          0
  mcf              :       0.01       0.00          1          1          0          0          0          0          0          0          0          0          0
  minor            :       0.00       0.00          0          0          0          0          0          0          0          0          0          0          0
  mixing           :       0.03       0.00       8375        227          0          0          0          0          0          0          0          0          0
  oddcycle         :       0.00       0.00          0          0          0          0          0          0          0          0          0          0          0
  rapidlearning    :       0.00       0.00          0          0          0          0          0          0          0          0          0          0          0
  rlt              :       0.00       0.00         10         10          0          0          0          0          0          0          0          0          0
  zerohalf         :      80.56       0.00       7453         20          0          0      44255    2521202          0     151335     151335          0          0
Cutselectors       :   ExecTime  SetupTime      Calls  RootCalls   Selected     Forced   Filtered  RootSelec   RootForc   RootFilt 
  hybrid           :       3.06       0.00      12875        228     157150          0    2370640        410          0         25
Pricers            :   ExecTime  SetupTime      Calls       Vars
  problem variables:       0.00          -          0          0
Branching Rules    :   ExecTime  SetupTime   BranchLP  BranchExt   BranchPS    Cutoffs    DomReds       Cuts      Conss   Children
  allfullstrong    :       0.00       0.00          0          0          0          0          0          0          0          0
  cloud            :       0.00       0.00          0          0          0          0          0          0          0          0
  distribution     :       0.00       0.00          0          0          0          0          0          0          0          0
  fullstrong       :       0.00       0.00          0          0          0          0          0          0          0          0
  inference        :       0.00       0.00          0          0          0          0          0          0          0          0
  leastinf         :       0.00       0.00          0          0          0          0          0          0          0          0
  lookahead        :       0.00       0.00          0          0          0          0          0          0          0          0
  mostinf          :       0.00       0.00          0          0          0          0          0          0          0          0
  multaggr         :       0.00       0.00          0          0          0          0          0          0          0          0
  nodereopt        :       0.00       0.00          0          0          0          0          0          0          0          0
  pscost           :       0.00       0.00          0          0          0          0          0          0          0          0
  random           :       0.00       0.00          0          0          0          0          0          0          0          0
  relpscost        :      59.93       0.00      27314          0          0          0        624          0        532      54128
  vanillafullstrong:       0.00       0.00          0          0          0          0          0          0          0          0
Primal Heuristics  :   ExecTime  SetupTime      Calls      Found       Best
  LP solutions     :       0.00          -          -          0          0
  relax solutions  :       0.00          -          -          0          0
  pseudo solutions :       0.00          -          -          0          0
  strong branching :       0.02          -          -          0          0
  actconsdiving    :       0.00       0.00          0          0          0
  adaptivediving   :       5.05       0.00         22          0          0
  alns             :       1.78       0.00         15          4          4
  bound            :       0.00       0.00          0          0          0
  clique           :       0.00       0.00          1          0          0
  coefdiving       :       0.00       0.00          0          0          0
  completesol      :       0.00       0.00          0          0          0
  conflictdiving   :      49.56       0.00        261          0          0
  crossover        :       0.03       0.00          1          0          0
  dins             :       0.00       0.00          0          0          0
  distributiondivin:      57.93       0.00        189          0          0
  dps              :       0.00       0.00          0          0          0
  dualval          :       0.00       0.00          0          0          0
  farkasdiving     :       0.01       0.00          0          0          0
  feaspump         :       1.51       0.00          1          1          1
  fixandinfer      :       0.00       0.00          0          0          0
  fracdiving       :      58.26       0.00        224          0          0
  gins             :       0.04       0.00          0          0          0
  guideddiving     :      54.32       0.00        245          0          0
  indicator        :       0.03       0.00          0          0          0
  indicatordiving  :       0.00       0.00          0          0          0
  intdiving        :       0.00       0.00          0          0          0
  intshifting      :       0.81       0.00         32          0          0
  linesearchdiving :      49.61       0.00        236          0          0
  localbranching   :       0.00       0.00          0          0          0
  locks            :       0.01       0.00          1          0          0
  lpface           :       0.02       0.00          0          0          0
  mpec             :     160.08       0.00         11          3          2
  multistart       :       0.00       0.00          0          0          0
  mutation         :       0.00       0.00          0          0          0
  nlpdiving        :      21.71       0.00          2          0          0
  objpscostdiving  :      83.28       0.00         30          2          1
  octane           :       0.00       0.00          0          0          0
  ofins            :       0.05       0.00          0          0          0
  oneopt           :       0.07       0.00         16          0          0
  padm             :       0.00       0.00          0          0          0
  proximity        :       0.00       0.00          0          0          0
  pscostdiving     :      51.79       0.00        209          0          0
  randrounding     :       1.29       0.00       5193          0          0
  rens             :       0.00       0.00          0          0          0
  reoptsols        :       0.00       0.00          0          0          0
  repair           :       0.00       0.00          0          0          0
  rins             :       1.64       0.00         16          3          3
  rootsoldiving    :      31.71       0.00         15          0          0
  rounding         :       1.14       0.00       2713          0          0
  shiftandpropagate:       0.00       0.00          0          0          0
  shifting         :      47.21       0.00       8937          7          6
  simplerounding   :       0.06       0.00          0          0          0
  subnlp           :      58.34       0.00          0          0          0
  trivial          :       0.00       0.00          2          2          2
  trivialnegation  :       0.00       0.00          0          0          0
  trustregion      :       0.00       0.00          0          0          0
  trysol           :       0.10       0.00          0          0          0
  twoopt           :       0.00       0.00          0          0          0
  undercover       :       1.08       0.00          1          1          1
  vbounds          :       0.00       0.00          0          0          0
  veclendiving     :      45.95       0.00        250          0          0
  zeroobj          :       0.00       0.00          0          0          0
  zirounding       :       0.38       0.00       1000          0          0
  other solutions  :          -          -          -          0          -
Diving (single)    :      Calls      Nodes   LP Iters Backtracks  Conflicts   MinDepth   MaxDepth   AvgDepth  RoundSols  NLeafSols  MinSolDpt  MaxSolDpt  AvgSolDpt
  actconsdiving    :          0          -          -          -          -          -          -          -          -          -          -          -          -
  coefdiving       :          0          -          -          -          -          -          -          -          -          -          -          -          -
  conflictdiving   :        261      11033     295691        273      18437         49         77       59.8          0          -          -          -          -
  distributiondivin:        189       7166     319587        211       6956         44         69       53.8          0          -          -          -          -
  farkasdiving     :          0          -          -          -          -          -          -          -          -          -          -          -          -
  fracdiving       :        224      55692     318011         61        724         58        701      267.0          0          -          -          -          -
  guideddiving     :        245      41633     316000         34       1380         65        403      189.3          0          -          -          -          -
  indicatordiving  :          0          -          -          -          -          -          -          -          -          -          -          -          -
  linesearchdiving :        236      11386     316174        267      13916         48         90       65.3          0          -          -          -          -
  pscostdiving     :        209       8842     319050        213       9261         50         71       59.2          0          -          -          -          -
  veclendiving     :        250      10632     271898        256      18014         50         90       60.4          0          -          -          -          -
Diving (adaptive)  :      Calls      Nodes   LP Iters Backtracks  Conflicts   MinDepth   MaxDepth   AvgDepth  RoundSols  NLeafSols  MinSolDpt  MaxSolDpt  AvgSolDpt
  actconsdiving    :          5        188       7756          5        171         49         57       52.8          0          -          -          -          -
  coefdiving       :          5        194       6686          5        322         49         61       55.4          0          -          -          -          -
  conflictdiving   :          0          -          -          -          -          -          -          -          -          -          -          -          -
  distributiondivin:          0          -          -          -          -          -          -          -          -          -          -          -          -
  farkasdiving     :          0          -          -          -          -          -          -          -          -          -          -          -          -
  fracdiving       :          0          -          -          -          -          -          -          -          -          -          -          -          -
  guideddiving     :          6        640       5618          1         43         56        220      133.3          0          -          -          -          -
  indicatordiving  :          0          -          -          -          -          -          -          -          -          -          -          -          -
  linesearchdiving :          2         89       2891          2        121         50         69       59.5          0          -          -          -          -
  pscostdiving     :          1         47       1545          1         66         61         61       61.0          0          -          -          -          -
  veclendiving     :          3        131       3534          3        248         56         63       58.7          0          -          -          -          -
Neighborhoods      :      Calls  SetupTime  SolveTime SolveNodes       Sols       Best       Exp3  EpsGreedy        UCB TgtFixRate  Opt  Inf Node Stal  Sol  Usr Othr Actv
  rens             :          2       0.14       0.03          2          0          0    0.00000   -1.00000    0.54539      0.550    0    2    0    0    0    0    0    1
  rins             :          4       0.27       0.34        117          1          1    0.00000   -1.00000    0.51621      0.747    1    1    0    2    0    0    0    1
  mutation         :          4       0.29       0.28        145          3          3    0.00000   -1.00000    0.51406      0.747    0    1    0    2    1    0    0    1
  localbranching   :          1       0.04       0.02         19          0          0    0.00000   -1.00000    0.54760      0.700    0    1    0    0    0    0    0    1
  crossover        :          1       0.01       0.02          3          0          0    0.00000   -1.00000    0.56360      0.700    0    1    0    0    0    0    0    1
  proximity        :          1       0.04       0.02         17          0          0    0.00000   -1.00000    0.54960      0.700    0    1    0    0    0    0    0    1
  zeroobjective    :          1       0.03       0.03         37          0          0    0.00000   -1.00000    0.52960      0.700    0    1    0    0    0    0    0    1
  dins             :          1       0.04       0.03         59          0          0    0.00000   -1.00000    0.50760      0.700    0    1    0    0    0    0    0    1
  trustregion      :          0       0.00       0.00          0          0          0    0.00000   -1.00000    1.00000      0.900    0    0    0    0    0    0    0    0
Expressions        :   #IntEval  IntEvalTi   #RevProp  RevPropTi    DomReds    Cutoffs  #Estimate  EstimTime  Branching  #Simplify SimplifyTi Simplified
  pow              :          0       0.00          0       0.00          0          0          0       0.00          0          0       0.00          0
  prod             :       9900       0.01          0       0.00          0          0          0       0.00          0       6751       0.01          0
  sum              :          8       0.00          2       0.00          0          0          0       0.00          0          3       0.00          2
  var              :       6554       0.00          0       0.00          0          0          0       0.00          0      15619       0.02          0
  varidx           :          0       0.00          0       0.00          0          0          0       0.00          0          0       0.00          0
LP                 :       Time      Calls Iterations  Iter/call   Iter/sec  Time-0-It Calls-0-It    ItLimit
  primal LP        :     137.63       5853          0       0.00       0.00     137.58       5853
  dual LP          :    1543.89      60104    6049421     107.09    3918.30       2.02       3615
  lex dual LP      :       0.00          0          0       0.00          -
  barrier LP       :       0.00          0          0       0.00          -       0.00          0
  resolve instable :       0.00          0          0       0.00          -
  diving/probing LP:     435.08       8260    2643867     320.08    6076.74
  strong branching :      45.06       1533     232889     151.92    5168.42          -          -        107
    (at root node) :          -         19       9704     510.74          -
  conflict analysis:       7.66       3397      33753       9.94    4406.40
NLP relaxation     :
  solve time       :      20.35 (15 calls)
  convexity        :  nonconvex (40 linear rows, 0 convex ineq., 0 nonconvex ineq., 1801 nonlinear eq. or two-sided ineq.)
NLP Solvers        :  #Problems  ProblemTi    #Solves  SolveTime      #Iter  Time/Iter      #Okay #TimeLimit #IterLimit #LObjLimit #Interrupt  #NumError #EvalError  #OutOfMem #LicenseEr #OtherTerm   #GlobOpt    #LocOpt  #Feasible #LocInfeas #GlobInfea #Unbounded   #Unknown
  ipopt            :         12       2.87         47     188.25       1995       0.09         45          0          2          0          0          0          0          0          0          0          0         34          0         11          0          0          2
B&B Tree           :
  number of runs   :          1
  nodes            :      43411 (27064 internal, 16347 leaves)
  feasible leaves  :          0
  infeas. leaves   :         21
  objective leaves :      16326
  nodes (total)    :      43411 (27064 internal, 16347 leaves)
  nodes left       :      10631
  max depth        :         57
  max depth (total):         57
  backtracks       :      10906 (25.1%)
  early backtracks :          0 (0.0%)
  nodes exc. ref.  :          0 (0.0%)
  delayed cutoffs  :          0
  repropagations   :         41 (165 domain reductions, 0 cutoffs)
  avg switch length:       6.01
  switching time   :     146.33
Estim. Tree Size   :      86996
Estimation Tree    : 54129 nodes (43498 visited, 27064 internal, 16434 leaves, 10631 open), weight: 0.0000 completed 0.1107
Estimations        :      estim      value      trend resolution     smooth
  wbe              : 11022741882071          -          -          -          -
  tree-profile     :         -1          -          -          -          -
  gap              :     290646    0.69741    0.00008         32     289330
  tree-weight      :      86996    0.00000    0.00000         32      85811
  leaf-frequency   :      86996    0.37780   -0.00022         32      89597
  ssg              :    1251361    0.82526   -0.00004         32    1214653
  open-nodes       :      86996 10631.00000   60.60613         32      85811
Root Node          :
  First LP value   : -5.45898989898991e+00
  First LP Iters   :       1707 (17070.00 Iter/sec)
  First LP Time    :       0.10
  Final Dual Bound : -5.14444069450171e+00
  Final Root Iters :       7157
  Root LP Estimate : -1.64940418408027e+00
Solution           :
  Solutions found  :         23 (20 improvements)
  First Solution   : +1.00000000000000e+05   (in run 1, after 0 nodes, 0.06 seconds, depth 0, found by <trivial>)
  Gap First Sol.   :   infinite
  Gap Last Sol.    :      45.40 %
  Primal Bound     : -3.19878787878788e+00   (in run 1, after 32925 nodes, 2196.37 seconds, depth 49, found by <rins>)
  Dual Bound       : -4.58664277964746e+00
  Gap              :      43.39 %
Integrals          :      Total       Avg%
  primal-dual      :  118527.22      32.92
  primal-ref       :          -          - (not evaluated)
  dual-ref         :          -          - (not evaluated)
